\ LP format - for model browsing. Use MPS format to capture full model detail.
Minimize
  2.59485e-09 X[1447412,1447932,2] + 3.5159e-09 X[1447412,1447932,1]
   + 4.17701e-09 X[1447451,1447449,1] + 5.90166e-09 X[1447581,1447449,1]
   + 7.96877e-09 X[1447581,1447873,1] + 2.54032e-09 X[1447924,1447179,1]
   + 1.14629e-08 X[1447449,1447433,1] + 2.44695e-09 X[1447873,1447433,1]
   + 2.54342e-09 X[1447849,1447506,1] + 4.84627e-09 X[1447721,1448285,2]
   + 4.77109e-10 X[1447172,1447402,2] + 1.13124e-09 X[1447172,1447402,1]
   + 3.79348e-09 X[1447559,1447172,1] + 6.38581e-09 X[1447402,1447721,1]
   + 5.93889e-09 X[1447506,1448271,2] + 4.84627e-09 X[1447747,1448087,2]
   + 1.41105e-09 X[1447795,1448084,2] + 9.47992e-10 X[1447795,1448084,1]
   + 5.65894e-09 X[1447642,1447849,2] + 5.08066e-09 X[1447444,1447642,1]
   + 4.77109e-10 X[1447342,1447795,2] + 1.03613e-09 X[1447825,1447900,3]
   + 6.01349e-09 X[1447825,1447900,1] + 1.13124e-09 X[1447342,1447795,1]
   + 4.27113e-10 X[1447644,1447342,3] + 3.6586e-09 X[1447900,1448085,2]
   + 3.59977e-09 X[1447900,1448085,1] + 3.97559e-09 X[1447644,1447342,1]
   + 1.70902e-09 X[1447454,1447900,3] + 9.30963e-09 X[1447454,1447900,1]
   + 2.33184e-09 X[1447171,1447747,1] + 7.87746e-09 X[1447898,1447171,1]
   + 4.64453e-09 X[1447825,1447898,1] + 1.61364e-09 X[1447644,1447898,3]
   + 4.30712e-09 X[1447644,1447898,1] + 7.578e-09 X[1447011,1447933,2]
   + 6.38581e-09 X[1447433,1447011,1] + 1.31878e-08 X[1447179,1447433,1]
   + 2.95977e-08 X[1447555,1447412,1] + 1.16017e-08 X[1447581,1447412,1]
   + 0.00191204588910134 O[1447171] + 0.00191204588910134 O[1447172]
   + 0.00191204588910134 O[1447342] + 0.00191204588910134 O[1447898]
   + 0.00191204588910134 O[1447795] + 0.00191204588910134 O[1447402]
   + 0.00191204588910134 O[1447642] + 0.00191204588910134 O[1448084]
   + 0.00191204588910134 O[1448085] + 0.00191204588910134 O[1447849]
   + 0.00191204588910134 O[1448412] + 0.00191204588910134 O[1447721]
   + 0.00191204588910134 O[1448283] + 0.00191204588910134 O[1448321]
   + 0.00191204588910134 O[1448322] + 0.00191204588910134 O[1448323]
   + 0.00191204588910134 O[1448324] + 0.00191204588910134 O[1448325]
   + 0.00191204588910134 O[1448326] + 0.00191204588910134 O[1448327]
   + 0.00191204588910134 O[1448328] + 0.00191204588910134 O[1448329]
   + 0.00191204588910134 O[1448330] + 0.00191204588910134 O[1448331]
   + 0.00191204588910134 O[1448332] + 0.00191204588910134 O[1448333]
   + 0.00191204588910134 O[1448334] + 0.00191204588910134 O[1448335]
   + 0.00191204588910134 O[1448336] + 0.00191204588910134 O[1448337]
   + 0.00191204588910134 O[1448338] + 0.00191204588910134 O[1448339]
   + 0.00191204588910134 O[1448340] + 0.00191204588910134 O[1448341]
   + 0.00191204588910134 O[1448342] + 0.00191204588910134 O[1448343]
   + 0.00191204588910134 O[1448344] + 0.00191204588910134 O[1448345]
   + 0.00191204588910134 O[1448346] + 0.00191204588910134 O[1448347]
   + 0.00191204588910134 O[1448348] + 0.00191204588910134 O[1448349]
   + 0.00191204588910134 O[1448350] + 0.00191204588910134 O[1448351]
   + 0.00191204588910134 O[1448352] + 0.00191204588910134 O[1448353]
   + 0.00191204588910134 O[1448354] + 0.00191204588910134 O[1448355]
   + 0.00191204588910134 O[1448356] + 0.00191204588910134 O[1448357]
   + 0.00191204588910134 O[1448358] + 0.00191204588910134 O[1448359]
   + 0.00191204588910134 O[1448360] + 0.00191204588910134 O[1448361]
   + 0.00191204588910134 O[1448362] + 0.00191204588910134 O[1448363]
   + 0.00191204588910134 O[1448364] + 0.00191204588910134 O[1448365]
   + 0.00191204588910134 O[1448366] + 0.00191204588910134 O[1448367]
   + 0.00191204588910134 O[1448368] + 0.00191204588910134 O[1448369]
   + 0.00191204588910134 O[1448370] + 0.00191204588910134 O[1448371]
   + 0.00191204588910134 O[1448372] + 0.00191204588910134 O[1448373]
   + 0.00191204588910134 O[1448374] + 0.00191204588910134 O[1448375]
   + 0.00191204588910134 O[1448376] + 0.00191204588910134 O[1448377]
   + 0.00191204588910134 O[1448378] + 0.00191204588910134 O[1448379]
   + 0.00191204588910134 O[1448380] + 0.00191204588910134 O[1448381]
   + 0.00191204588910134 O[1448382] + 0.00191204588910134 O[1448383]
   + 0.00191204588910134 O[1448384] + 0.00191204588910134 O[1448385]
   + 0.00191204588910134 O[1448386] + 0.00191204588910134 O[1448387]
   + 0.00191204588910134 O[1448388] + 0.00191204588910134 O[1448389]
   + 0.00191204588910134 O[1448390] + 0.00191204588910134 O[1448391]
   + 0.00191204588910134 O[1448392] + 0.00191204588910134 O[1448393]
   + 0.00191204588910134 O[1448394] + 0.00191204588910134 O[1447559]
   + 0.00191204588910134 O[1448395] + 0.00191204588910134 O[1448396]
   + 0.00191204588910134 O[1448397] + 0.00191204588910134 O[1448398]
   + 0.00191204588910134 O[1448399] + 0.00191204588910134 O[1448400]
   + 0.00191204588910134 O[1448401] + 0.00191204588910134 O[1448402]
   + 0.00191204588910134 O[1448403] + 0.00191204588910134 O[1448404]
   + 0.00191204588910134 O[1448405] + 0.00191204588910134 O[1448406]
   + 0.00191204588910134 O[1448407] + 0.00191204588910134 O[1448408]
   + 0.00191204588910134 O[1448409] + 0.00191204588910134 O[1448410]
   + 0.00191204588910134 O[1448411] + 0.00191204588910134 O[1448100]
   + 0.00191204588910134 O[1448101] + 0.00191204588910134 O[1448102]
   + 0.00191204588910134 O[1448103] + 0.00191204588910134 O[1448104]
   + 0.00191204588910134 O[1448105] + 0.00191204588910134 O[1448106]
   + 0.00191204588910134 O[1448107] + 0.00191204588910134 O[1448108]
   + 0.00191204588910134 O[1448109] + 0.00191204588910134 O[1448110]
   + 0.00191204588910134 O[1448111] + 0.00191204588910134 O[1448112]
   + 0.00191204588910134 O[1448113] + 0.00191204588910134 O[1448114]
   + 0.00191204588910134 O[1448115] + 0.00191204588910134 O[1448116]
   + 0.00191204588910134 O[1448117] + 0.00191204588910134 O[1448118]
   + 0.00191204588910134 O[1448119] + 0.00191204588910134 O[1448120]
   + 0.00191204588910134 O[1448121] + 0.00191204588910134 O[1448122]
   + 0.00191204588910134 O[1448123] + 0.00191204588910134 O[1448146]
   + 0.00191204588910134 O[1448147] + 0.00191204588910134 O[1448148]
   + 0.00191204588910134 O[1448149] + 0.00191204588910134 O[1448150]
   + 0.00191204588910134 O[1448151] + 0.00191204588910134 O[1448152]
   + 0.00191204588910134 O[1448153] + 0.00191204588910134 O[1448154]
   + 0.00191204588910134 O[1448155] + 0.00191204588910134 O[1448156]
   + 0.00191204588910134 O[1448157] + 0.00191204588910134 O[1448158]
   + 0.00191204588910134 O[1448159] + 0.00191204588910134 O[1448160]
   + 0.00191204588910134 O[1448161] + 0.00191204588910134 O[1448162]
   + 0.00191204588910134 O[1448163] + 0.00191204588910134 O[1448164]
   + 0.00191204588910134 O[1448165] + 0.00191204588910134 O[1448166]
   + 0.00191204588910134 O[1448167] + 0.00191204588910134 O[1448168]
   + 0.00191204588910134 O[1448169] + 0.00191204588910134 O[1448170]
   + 0.00191204588910134 O[1448171] + 0.00191204588910134 O[1448172]
   + 0.00191204588910134 O[1448173] + 0.00191204588910134 O[1448174]
   + 0.00191204588910134 O[1448175] + 0.00191204588910134 O[1448176]
   + 0.00191204588910134 O[1448177] + 0.00191204588910134 O[1448178]
   + 0.00191204588910134 O[1448179] + 0.00191204588910134 O[1448180]
   + 0.00191204588910134 O[1448181] + 0.00191204588910134 O[1448182]
   + 0.00191204588910134 O[1448183] + 0.00191204588910134 O[1448184]
   + 0.00191204588910134 O[1448185] + 0.00191204588910134 O[1448186]
   + 0.00191204588910134 O[1448187] + 0.00191204588910134 O[1448188]
   + 0.00191204588910134 O[1448189] + 0.00191204588910134 O[1448190]
   + 0.00191204588910134 O[1448191] + 0.00191204588910134 O[1448192]
   + 0.00191204588910134 O[1448193] + 0.00191204588910134 O[1448194]
   + 0.00191204588910134 O[1448195] + 0.00191204588910134 O[1448196]
   + 0.00191204588910134 O[1448197] + 0.00191204588910134 O[1448198]
   + 0.00191204588910134 O[1448200] + 0.00191204588910134 O[1448201]
   + 0.00191204588910134 O[1448202] + 0.00191204588910134 O[1448203]
   + 0.00191204588910134 O[1448204] + 0.00191204588910134 O[1448205]
   + 0.00191204588910134 O[1448206] + 0.00191204588910134 O[1448207]
   + 0.00191204588910134 O[1448208] + 0.00191204588910134 O[1448209]
   + 0.00191204588910134 O[1448210] + 0.00191204588910134 O[1448211]
   + 0.00191204588910134 O[1448212] + 0.00191204588910134 O[1448213]
   + 0.00191204588910134 O[1448214] + 0.00191204588910134 O[1448215]
   + 0.00191204588910134 O[1448216] + 0.00191204588910134 O[1448217]
   + 0.00191204588910134 O[1448218] + 0.00191204588910134 O[1448219]
   + 0.00191204588910134 O[1448220] + 0.00191204588910134 O[1448221]
   + 0.00191204588910134 O[1448222] + 0.00191204588910134 O[1448223]
   + 0.00191204588910134 O[1448224] + 0.00191204588910134 O[1448225]
   + 0.00191204588910134 O[1448226] + 0.00191204588910134 O[1448227]
   + 0.00191204588910134 O[1448229] + 0.00191204588910134 O[1448235]
   + 0.00191204588910134 O[1448236] + 0.00191204588910134 O[1448237]
   + 0.00191204588910134 O[1448238] + 0.00191204588910134 O[1448239]
   + 0.00191204588910134 O[1448240] + 0.00191204588910134 O[1448241]
   + 0.00191204588910134 O[1448242] + 0.00191204588910134 O[1448246]
   + 0.00191204588910134 O[1448247] + 0.00191204588910134 O[1448248]
   + 0.00191204588910134 O[1448249] + 0.00191204588910134 O[1448250]
   + 0.00191204588910134 O[1448251] + 0.00191204588910134 O[1448252]
   + 0.00191204588910134 O[1447444] + 0.00191204588910134 O[1447785]
   + 0.00191204588910134 O[1448280] + 0.00191204588910134 O[1448243]
   + 0.00191204588910134 O[1448244] + 0.00191204588910134 O[1448281]
   + 0.00191204588910134 O[1447506] + 0.00191204588910134 O[1448282]
   + 0.00191204588910134 O[1447361] + 0.00191204588910134 O[1447454]
   + 0.00191204588910134 O[1447531] + 0.00191204588910134 O[1447644]
   + 0.00191204588910134 O[1447747] + 0.00191204588910134 O[1447825]
   + 0.00191204588910134 O[1448199] + 0.00191204588910134 O[1448124]
   + 0.00191204588910134 O[1448125] + 0.00191204588910134 O[1448126]
   + 0.00191204588910134 O[1448127] + 0.00191204588910134 O[1448128]
   + 0.00191204588910134 O[1448129] + 0.00191204588910134 O[1448130]
   + 0.00191204588910134 O[1448131] + 0.00191204588910134 O[1448132]
   + 0.00191204588910134 O[1448133] + 0.00191204588910134 O[1448135]
   + 0.00191204588910134 O[1448136] + 0.00191204588910134 O[1448137]
   + 0.00191204588910134 O[1448138] + 0.00191204588910134 O[1448139]
   + 0.00191204588910134 O[1448140] + 0.00191204588910134 O[1448141]
   + 0.00191204588910134 O[1448142] + 0.00191204588910134 O[1448143]
   + 0.00191204588910134 O[1448144] + 0.00191204588910134 O[1448145]
   + 0.00191204588910134 O[1448086] + 0.00191204588910134 O[1448087]
   + 0.00191204588910134 O[1448088] + 0.00191204588910134 O[1448089]
   + 0.00191204588910134 O[1448090] + 0.00191204588910134 O[1448091]
   + 0.00191204588910134 O[1448092] + 0.00191204588910134 O[1448093]
   + 0.00191204588910134 O[1448094] + 0.00191204588910134 O[1448095]
   + 0.00191204588910134 O[1448096] + 0.00191204588910134 O[1448097]
   + 0.00191204588910134 O[1448098] + 0.00191204588910134 O[1448099]
   + 0.00191204588910134 O[1448245] + 0.00191204588910134 O[1448134]
   + 0.00191204588910134 O[1448228] + 0.00191204588910134 O[1448253]
   + 0.00191204588910134 O[1448254] + 0.00191204588910134 O[1448255]
   + 0.00191204588910134 O[1448256] + 0.00191204588910134 O[1448257]
   + 0.00191204588910134 O[1448258] + 0.00191204588910134 O[1448259]
   + 0.00191204588910134 O[1448260] + 0.00191204588910134 O[1448261]
   + 0.00191204588910134 O[1448262] + 0.00191204588910134 O[1448263]
   + 0.00191204588910134 O[1448264] + 0.00191204588910134 O[1448265]
   + 0.00191204588910134 O[1448266] + 0.00191204588910134 O[1448267]
   + 0.00191204588910134 O[1448268] + 0.00191204588910134 O[1448269]
   + 0.00191204588910134 O[1448270] + 0.00191204588910134 O[1448271]
   + 0.00191204588910134 O[1448272] + 0.00191204588910134 O[1448273]
   + 0.00191204588910134 O[1448274] + 0.00191204588910134 O[1448275]
   + 0.00191204588910134 O[1448276] + 0.00191204588910134 O[1448277]
   + 0.00191204588910134 O[1448278] + 0.00191204588910134 O[1448279]
   + 0.00191204588910134 O[1448413] + 0.00191204588910134 O[1448414]
   + 0.00191204588910134 O[1448415] + 0.00191204588910134 O[1448416]
   + 0.00191204588910134 O[1448417] + 0.00191204588910134 O[1448418]
   + 0.00191204588910134 O[1448419] + 0.00191204588910134 O[1448420]
   + 0.00191204588910134 O[1448421] + 0.00191204588910134 O[1448284]
   + 0.00191204588910134 O[1448285] + 0.00191204588910134 O[1448286]
   + 0.00191204588910134 O[1448287] + 0.00191204588910134 O[1448288]
   + 0.00191204588910134 O[1448289] + 0.00191204588910134 O[1448290]
   + 0.00191204588910134 O[1448291] + 0.00191204588910134 O[1448292]
   + 0.00191204588910134 O[1448293] + 0.00191204588910134 O[1448294]
   + 0.00191204588910134 O[1448295] + 0.00191204588910134 O[1448296]
   + 0.00191204588910134 O[1448297] + 0.00191204588910134 O[1448298]
   + 0.00191204588910134 O[1448299] + 0.00191204588910134 O[1448300]
   + 0.00191204588910134 O[1448301] + 0.00191204588910134 O[1448302]
   + 0.00191204588910134 O[1448303] + 0.00191204588910134 O[1448304]
   + 0.00191204588910134 O[1448305] + 0.00191204588910134 O[1448306]
   + 0.00191204588910134 O[1448307] + 0.00191204588910134 O[1448308]
   + 0.00191204588910134 O[1448309] + 0.00191204588910134 O[1448310]
   + 0.00191204588910134 O[1448311] + 0.00191204588910134 O[1448312]
   + 0.00191204588910134 O[1448313] + 0.00191204588910134 O[1448314]
   + 0.00191204588910134 O[1448315] + 0.00191204588910134 O[1448316]
   + 0.00191204588910134 O[1448317] + 0.00191204588910134 O[1448318]
   + 0.00191204588910134 O[1448319] + 0.00191204588910134 O[1448320]
   + 0.00191204588910134 O[1447967] + 0.00191204588910134 O[1447930]
   + 0.00191204588910134 O[1447931] + 0.00191204588910134 O[1447932]
   + 0.00191204588910134 O[1447933] + 0.00191204588910134 O[1447934]
   + 0.00191204588910134 O[1448008] + 0.00191204588910134 O[1448009]
   + 0.00191204588910134 O[1448010] + 0.00191204588910134 O[1448011]
   + 0.00191204588910134 O[1448012] + 0.00191204588910134 O[1448013]
   + 0.00191204588910134 O[1448014] + 0.00191204588910134 O[1448015]
   + 0.00191204588910134 O[1448016] + 0.00191204588910134 O[1448017]
   + 0.00191204588910134 O[1447935] + 0.00191204588910134 O[1447936]
   + 0.00191204588910134 O[1447937] + 0.00191204588910134 O[1447938]
   + 0.00191204588910134 O[1447939] + 0.00191204588910134 O[1447940]
   + 0.00191204588910134 O[1447941] + 0.00191204588910134 O[1447942]
   + 0.00191204588910134 O[1447943] + 0.00191204588910134 O[1447944]
   + 0.00191204588910134 O[1447945] + 0.00191204588910134 O[1447946]
   + 0.00191204588910134 O[1447947] + 0.00191204588910134 O[1447948]
   + 0.00191204588910134 O[1447949] + 0.00191204588910134 O[1447950]
   + 0.00191204588910134 O[1447951] + 0.00191204588910134 O[1448018]
   + 0.00191204588910134 O[1448019] + 0.00191204588910134 O[1448020]
   + 0.00191204588910134 O[1448021] + 0.00191204588910134 O[1448022]
   + 0.00191204588910134 O[1448023] + 0.00191204588910134 O[1448024]
   + 0.00191204588910134 O[1448025] + 0.00191204588910134 O[1448026]
   + 0.00191204588910134 O[1448027] + 0.00191204588910134 O[1448028]
   + 0.00191204588910134 O[1448029] + 0.00191204588910134 O[1448030]
   + 0.00191204588910134 O[1448031] + 0.00191204588910134 O[1448032]
   + 0.00191204588910134 O[1448033] + 0.00191204588910134 O[1448034]
   + 0.00191204588910134 O[1448035] + 0.00191204588910134 O[1448036]
   + 0.00191204588910134 O[1448037] + 0.00191204588910134 O[1447952]
   + 0.00191204588910134 O[1447953] + 0.00191204588910134 O[1447954]
   + 0.00191204588910134 O[1447955] + 0.00191204588910134 O[1447956]
   + 0.00191204588910134 O[1447957] + 0.00191204588910134 O[1447958]
   + 0.00191204588910134 O[1447959] + 0.00191204588910134 O[1447960]
   + 0.00191204588910134 O[1447961] + 0.00191204588910134 O[1447962]
   + 0.00191204588910134 O[1447963] + 0.00191204588910134 O[1447964]
   + 0.00191204588910134 O[1447965] + 0.00191204588910134 O[1447966]
   + 0.00191204588910134 O[1447179] + 0.00191204588910134 O[1447433]
   + 0.00191204588910134 O[1447449] + 0.00191204588910134 O[1447873]
   + 0.00191204588910134 O[1447011] + 0.00191204588910134 O[1447271]
   + 0.00191204588910134 O[1447451] + 0.00191204588910134 O[1447555]
   + 0.00191204588910134 O[1447581] + 0.00191204588910134 O[1448006]
   + 0.00191204588910134 O[1448007] + 0.00191204588910134 O[1448069]
   + 0.00191204588910134 O[1448070] + 0.00191204588910134 O[1448071]
   + 0.00191204588910134 O[1448072] + 0.00191204588910134 O[1448073]
   + 0.00191204588910134 O[1448074] + 0.00191204588910134 O[1448075]
   + 0.00191204588910134 O[1448076] + 0.00191204588910134 O[1448077]
   + 0.00191204588910134 O[1448078] + 0.00191204588910134 O[1448079]
   + 0.00191204588910134 O[1448080] + 0.00191204588910134 O[1448081]
   + 0.00191204588910134 O[1448082] + 0.00191204588910134 O[1447924]
   + 0.00191204588910134 O[1448083] + 0.00191204588910134 O[1447968]
   + 0.00191204588910134 O[1447969] + 0.00191204588910134 O[1447970]
   + 0.00191204588910134 O[1447971] + 0.00191204588910134 O[1447972]
   + 0.00191204588910134 O[1447973] + 0.00191204588910134 O[1447974]
   + 0.00191204588910134 O[1447975] + 0.00191204588910134 O[1447976]
   + 0.00191204588910134 O[1447977] + 0.00191204588910134 O[1447978]
   + 0.00191204588910134 O[1447979] + 0.00191204588910134 O[1447980]
   + 0.00191204588910134 O[1447981] + 0.00191204588910134 O[1447982]
   + 0.00191204588910134 O[1447983] + 0.00191204588910134 O[1447984]
   + 0.00191204588910134 O[1447985] + 0.00191204588910134 O[1447986]
   + 0.00191204588910134 O[1447987] + 0.00191204588910134 O[1447988]
   + 0.00191204588910134 O[1447989] + 0.00191204588910134 O[1447990]
   + 0.00191204588910134 O[1447991] + 0.00191204588910134 O[1447992]
   + 0.00191204588910134 O[1447993] + 0.00191204588910134 O[1447994]
   + 0.00191204588910134 O[1447995] + 0.00191204588910134 O[1447996]
   + 0.00191204588910134 O[1447997] + 0.00191204588910134 O[1447998]
   + 0.00191204588910134 O[1447999] + 0.00191204588910134 O[1448000]
   + 0.00191204588910134 O[1448001] + 0.00191204588910134 O[1448002]
   + 0.00191204588910134 O[1448003] + 0.00191204588910134 O[1448004]
   + 0.00191204588910134 O[1448005] + 0.00191204588910134 O[1448038]
   + 0.00191204588910134 O[1448039] + 0.00191204588910134 O[1448040]
   + 0.00191204588910134 O[1448041] + 0.00191204588910134 O[1448042]
   + 0.00191204588910134 O[1448043] + 0.00191204588910134 O[1448044]
   + 0.00191204588910134 O[1448045] + 0.00191204588910134 O[1448046]
   + 0.00191204588910134 O[1448047] + 0.00191204588910134 O[1448048]
   + 0.00191204588910134 O[1448049] + 0.00191204588910134 O[1448050]
   + 0.00191204588910134 O[1448051] + 0.00191204588910134 O[1448052]
   + 0.00191204588910134 O[1448053] + 0.00191204588910134 O[1448054]
   + 0.00191204588910134 O[1448055] + 0.00191204588910134 O[1448056]
   + 0.00191204588910134 O[1448057] + 0.00191204588910134 O[1448058]
   + 0.00191204588910134 O[1448059] + 0.00191204588910134 O[1448060]
   + 0.00191204588910134 O[1448061] + 0.00191204588910134 O[1448062]
   + 0.00191204588910134 O[1448063] + 0.00191204588910134 O[1448064]
   + 0.00191204588910134 O[1448065] + 0.00191204588910134 O[1448066]
   + 0.00191204588910134 O[1448067] + 0.00191204588910134 O[1448068]
   + 0.00191204588910134 O[1448230] + 0.00191204588910134 O[1447900]
   + 0.00191204588910134 O[1447412] + 0.00191204588910134 O[1448231]
   + 0.00191204588910134 O[1448232] + 0.00191204588910134 O[1448233]
   + 0.00191204588910134 O[1448234]
Subject To
 customer_flow[1447932]: - X[1447412,1447932,2] - X[1447412,1447932,1]
   = -4
 customer_flow[1448285]: - X[1447721,1448285,2] = -11
 customer_flow[1448271]: - X[1447506,1448271,2] = -958
 customer_flow[1448087]: - X[1447747,1448087,2] = -7412
 customer_flow[1448084]: - X[1447795,1448084,2] - X[1447795,1448084,1]
   = -9
 customer_flow[1448085]: - X[1447900,1448085,2] - X[1447900,1448085,1]
   = -47
 customer_flow[1447933]: - X[1447011,1447933,2] = -5
 non_customer_flow[1447721]: X[1447721,1448285,2] - X[1447402,1447721,1]
   = 0
 non_customer_flow[1447506]: - X[1447849,1447506,1] + X[1447506,1448271,2]
   = 0
 non_customer_flow[1447747]: X[1447747,1448087,2] - X[1447171,1447747,1]
   = 0
 non_customer_flow[1447011]: X[1447011,1447933,2] - X[1447433,1447011,1]
   = 0
 non_customer_flow[1447433]: - X[1447449,1447433,1] - X[1447873,1447433,1]
   + X[1447433,1447011,1] - X[1447179,1447433,1] = 0
 non_customer_flow[1447433]: - X[1447449,1447433,1] - X[1447873,1447433,1]
   + X[1447433,1447011,1] - X[1447179,1447433,1] = 0
 non_customer_flow[1447402]: - X[1447172,1447402,2] - X[1447172,1447402,1]
   + X[1447402,1447721,1] = 0
 non_customer_flow[1447849]: X[1447849,1447506,1] - X[1447642,1447849,2]
   = 0
 non_customer_flow[1447795]: X[1447795,1448084,2] + X[1447795,1448084,1]
   - X[1447342,1447795,2] - X[1447342,1447795,1] = 0
 non_customer_flow[1447171]: X[1447171,1447747,1] - X[1447898,1447171,1]
   = 0
 non_customer_flow[1447433]: - X[1447449,1447433,1] - X[1447873,1447433,1]
   + X[1447433,1447011,1] - X[1447179,1447433,1] = 0
 capacity_constraint[1447433]: X[1447449,1447433,1] + X[1447873,1447433,1]
   + X[1447179,1447433,1] - 65199 O[1447433] <= 0
 capacity_constraint[1447433]: X[1447449,1447433,1] + X[1447873,1447433,1]
   + X[1447179,1447433,1] - 65199 O[1447433] <= 0
 capacity_constraint[1447402]: X[1447172,1447402,2] + X[1447172,1447402,1]
   - 29084 O[1447402] <= 0
 capacity_constraint[1447849]: X[1447642,1447849,2] - 373236 O[1447849]
   <= 0
 capacity_constraint[1447795]: X[1447342,1447795,2] + X[1447342,1447795,1]
   - 62054 O[1447795] <= 0
 capacity_constraint[1447171]: X[1447898,1447171,1] - 173861 O[1447171]
   <= 0
 capacity_constraint[1447433]: X[1447449,1447433,1] + X[1447873,1447433,1]
   + X[1447179,1447433,1] - 65199 O[1447433] <= 0
 non_customer_flow[1447449]: - X[1447451,1447449,1] - X[1447581,1447449,1]
   + X[1447449,1447433,1] = 0
 non_customer_flow[1447449]: - X[1447451,1447449,1] - X[1447581,1447449,1]
   + X[1447449,1447433,1] = 0
 non_customer_flow[1447873]: - X[1447581,1447873,1] + X[1447873,1447433,1]
   = 0
 non_customer_flow[1447179]: - X[1447924,1447179,1] + X[1447179,1447433,1]
   = 0
 non_customer_flow[1447172]: X[1447172,1447402,2] + X[1447172,1447402,1]
   - X[1447559,1447172,1] = 0
 non_customer_flow[1447642]: X[1447642,1447849,2] - X[1447444,1447642,1]
   = 0
 non_customer_flow[1447900]: - X[1447825,1447900,3] - X[1447825,1447900,1]
   + X[1447900,1448085,2] + X[1447900,1448085,1] - X[1447454,1447900,3]
   - X[1447454,1447900,1] = 0
 non_customer_flow[1447342]: X[1447342,1447795,2] + X[1447342,1447795,1]
   - X[1447644,1447342,3] - X[1447644,1447342,1] = 0
 non_customer_flow[1447900]: - X[1447825,1447900,3] - X[1447825,1447900,1]
   + X[1447900,1448085,2] + X[1447900,1448085,1] - X[1447454,1447900,3]
   - X[1447454,1447900,1] = 0
 non_customer_flow[1447898]: X[1447898,1447171,1] - X[1447825,1447898,1]
   - X[1447644,1447898,3] - X[1447644,1447898,1] = 0
 non_customer_flow[1447898]: X[1447898,1447171,1] - X[1447825,1447898,1]
   - X[1447644,1447898,3] - X[1447644,1447898,1] = 0
 non_customer_flow[1447412]: X[1447412,1447932,2] + X[1447412,1447932,1]
   - X[1447555,1447412,1] - X[1447581,1447412,1] = 0
 non_customer_flow[1447412]: X[1447412,1447932,2] + X[1447412,1447932,1]
   - X[1447555,1447412,1] - X[1447581,1447412,1] = 0
 capacity_constraint[1447449]: X[1447451,1447449,1] + X[1447581,1447449,1]
   - 2436 O[1447449] <= 0
 capacity_constraint[1447449]: X[1447451,1447449,1] + X[1447581,1447449,1]
   - 2436 O[1447449] <= 0
 capacity_constraint[1447873]: X[1447581,1447873,1] - 35 O[1447873] <= 0
 capacity_constraint[1447179]: X[1447924,1447179,1] - 62728 O[1447179]
   <= 0
 capacity_constraint[1447172]: X[1447559,1447172,1] - 29084 O[1447172]
   <= 0
 capacity_constraint[1447642]: X[1447444,1447642,1] - 373236 O[1447642]
   <= 0
 capacity_constraint[1447900]: X[1447825,1447900,3] + X[1447825,1447900,1]
   + X[1447454,1447900,3] + X[1447454,1447900,1] - 59 O[1447900] <= 0
 capacity_constraint[1447342]: X[1447644,1447342,3] + X[1447644,1447342,1]
   - 62054 O[1447342] <= 0
 capacity_constraint[1447900]: X[1447825,1447900,3] + X[1447825,1447900,1]
   + X[1447454,1447900,3] + X[1447454,1447900,1] - 59 O[1447900] <= 0
 capacity_constraint[1447898]: X[1447825,1447898,1] + X[1447644,1447898,3]
   + X[1447644,1447898,1] - 173861 O[1447898] <= 0
 capacity_constraint[1447898]: X[1447825,1447898,1] + X[1447644,1447898,3]
   + X[1447644,1447898,1] - 173861 O[1447898] <= 0
 capacity_constraint[1447412]: X[1447555,1447412,1] + X[1447581,1447412,1]
   - 5 O[1447412] <= 0
 capacity_constraint[1447412]: X[1447555,1447412,1] + X[1447581,1447412,1]
   - 5 O[1447412] <= 0
 alpha_constraint[1266]: - 0.06641 X[1447412,1447932,2]
   - 0.06641 X[1447412,1447932,1] + X[1447555,1447412,1] = 0
 alpha_constraint[1268]: - 0.93359 X[1447412,1447932,2]
   - 0.93359 X[1447412,1447932,1] + X[1447581,1447412,1] = 0
 alpha_constraint[14]: X[1447451,1447449,1] - 0.9512 X[1447449,1447433,1]
   = 0
 alpha_constraint[16]: X[1447581,1447449,1] - 0.0488 X[1447449,1447433,1]
   = 0
 alpha_constraint[22]: X[1447581,1447873,1] - X[1447873,1447433,1] = 0
 alpha_constraint[12]: - X[1447172,1447402,2] - X[1447172,1447402,1]
   + X[1447559,1447172,1] = 0
 alpha_constraint[10]: - X[1447642,1447849,2] + X[1447444,1447642,1] = 0
 alpha_constraint[487]: - X[1447342,1447795,2] - X[1447342,1447795,1]
   + X[1447644,1447342,3] + X[1447644,1447342,1] = 0
 alpha_constraint[14]: - 0.18149 X[1447898,1447171,1]
   + X[1447825,1447898,1] = 0
 alpha_constraint[16]: - 0.81851 X[1447898,1447171,1]
   + X[1447644,1447898,3] + X[1447644,1447898,1] = 0
 alpha_constraint[2230]: X[1447825,1447900,3] + X[1447825,1447900,1]
   - 0.37968 X[1447900,1448085,2] - 0.37968 X[1447900,1448085,1] = 0
 alpha_constraint[2232]: - 0.62032 X[1447900,1448085,2]
   - 0.62032 X[1447900,1448085,1] + X[1447454,1447900,3]
   + X[1447454,1447900,1] = 0
 alpha_constraint[28]: X[1447924,1447179,1] - X[1447179,1447433,1] = 0
Bounds
Binaries
 O[1447171] O[1447172] O[1447342] O[1447898] O[1447795] O[1447402]
 O[1447642] O[1448084] O[1448085] O[1447849] O[1448412] O[1447721]
 O[1448283] O[1448321] O[1448322] O[1448323] O[1448324] O[1448325]
 O[1448326] O[1448327] O[1448328] O[1448329] O[1448330] O[1448331]
 O[1448332] O[1448333] O[1448334] O[1448335] O[1448336] O[1448337]
 O[1448338] O[1448339] O[1448340] O[1448341] O[1448342] O[1448343]
 O[1448344] O[1448345] O[1448346] O[1448347] O[1448348] O[1448349]
 O[1448350] O[1448351] O[1448352] O[1448353] O[1448354] O[1448355]
 O[1448356] O[1448357] O[1448358] O[1448359] O[1448360] O[1448361]
 O[1448362] O[1448363] O[1448364] O[1448365] O[1448366] O[1448367]
 O[1448368] O[1448369] O[1448370] O[1448371] O[1448372] O[1448373]
 O[1448374] O[1448375] O[1448376] O[1448377] O[1448378] O[1448379]
 O[1448380] O[1448381] O[1448382] O[1448383] O[1448384] O[1448385]
 O[1448386] O[1448387] O[1448388] O[1448389] O[1448390] O[1448391]
 O[1448392] O[1448393] O[1448394] O[1447559] O[1448395] O[1448396]
 O[1448397] O[1448398] O[1448399] O[1448400] O[1448401] O[1448402]
 O[1448403] O[1448404] O[1448405] O[1448406] O[1448407] O[1448408]
 O[1448409] O[1448410] O[1448411] O[1448100] O[1448101] O[1448102]
 O[1448103] O[1448104] O[1448105] O[1448106] O[1448107] O[1448108]
 O[1448109] O[1448110] O[1448111] O[1448112] O[1448113] O[1448114]
 O[1448115] O[1448116] O[1448117] O[1448118] O[1448119] O[1448120]
 O[1448121] O[1448122] O[1448123] O[1448146] O[1448147] O[1448148]
 O[1448149] O[1448150] O[1448151] O[1448152] O[1448153] O[1448154]
 O[1448155] O[1448156] O[1448157] O[1448158] O[1448159] O[1448160]
 O[1448161] O[1448162] O[1448163] O[1448164] O[1448165] O[1448166]
 O[1448167] O[1448168] O[1448169] O[1448170] O[1448171] O[1448172]
 O[1448173] O[1448174] O[1448175] O[1448176] O[1448177] O[1448178]
 O[1448179] O[1448180] O[1448181] O[1448182] O[1448183] O[1448184]
 O[1448185] O[1448186] O[1448187] O[1448188] O[1448189] O[1448190]
 O[1448191] O[1448192] O[1448193] O[1448194] O[1448195] O[1448196]
 O[1448197] O[1448198] O[1448200] O[1448201] O[1448202] O[1448203]
 O[1448204] O[1448205] O[1448206] O[1448207] O[1448208] O[1448209]
 O[1448210] O[1448211] O[1448212] O[1448213] O[1448214] O[1448215]
 O[1448216] O[1448217] O[1448218] O[1448219] O[1448220] O[1448221]
 O[1448222] O[1448223] O[1448224] O[1448225] O[1448226] O[1448227]
 O[1448229] O[1448235] O[1448236] O[1448237] O[1448238] O[1448239]
 O[1448240] O[1448241] O[1448242] O[1448246] O[1448247] O[1448248]
 O[1448249] O[1448250] O[1448251] O[1448252] O[1447444] O[1447785]
 O[1448280] O[1448243] O[1448244] O[1448281] O[1447506] O[1448282]
 O[1447361] O[1447454] O[1447531] O[1447644] O[1447747] O[1447825]
 O[1448199] O[1448124] O[1448125] O[1448126] O[1448127] O[1448128]
 O[1448129] O[1448130] O[1448131] O[1448132] O[1448133] O[1448135]
 O[1448136] O[1448137] O[1448138] O[1448139] O[1448140] O[1448141]
 O[1448142] O[1448143] O[1448144] O[1448145] O[1448086] O[1448087]
 O[1448088] O[1448089] O[1448090] O[1448091] O[1448092] O[1448093]
 O[1448094] O[1448095] O[1448096] O[1448097] O[1448098] O[1448099]
 O[1448245] O[1448134] O[1448228] O[1448253] O[1448254] O[1448255]
 O[1448256] O[1448257] O[1448258] O[1448259] O[1448260] O[1448261]
 O[1448262] O[1448263] O[1448264] O[1448265] O[1448266] O[1448267]
 O[1448268] O[1448269] O[1448270] O[1448271] O[1448272] O[1448273]
 O[1448274] O[1448275] O[1448276] O[1448277] O[1448278] O[1448279]
 O[1448413] O[1448414] O[1448415] O[1448416] O[1448417] O[1448418]
 O[1448419] O[1448420] O[1448421] O[1448284] O[1448285] O[1448286]
 O[1448287] O[1448288] O[1448289] O[1448290] O[1448291] O[1448292]
 O[1448293] O[1448294] O[1448295] O[1448296] O[1448297] O[1448298]
 O[1448299] O[1448300] O[1448301] O[1448302] O[1448303] O[1448304]
 O[1448305] O[1448306] O[1448307] O[1448308] O[1448309] O[1448310]
 O[1448311] O[1448312] O[1448313] O[1448314] O[1448315] O[1448316]
 O[1448317] O[1448318] O[1448319] O[1448320] O[1447967] O[1447930]
 O[1447931] O[1447932] O[1447933] O[1447934] O[1448008] O[1448009]
 O[1448010] O[1448011] O[1448012] O[1448013] O[1448014] O[1448015]
 O[1448016] O[1448017] O[1447935] O[1447936] O[1447937] O[1447938]
 O[1447939] O[1447940] O[1447941] O[1447942] O[1447943] O[1447944]
 O[1447945] O[1447946] O[1447947] O[1447948] O[1447949] O[1447950]
 O[1447951] O[1448018] O[1448019] O[1448020] O[1448021] O[1448022]
 O[1448023] O[1448024] O[1448025] O[1448026] O[1448027] O[1448028]
 O[1448029] O[1448030] O[1448031] O[1448032] O[1448033] O[1448034]
 O[1448035] O[1448036] O[1448037] O[1447952] O[1447953] O[1447954]
 O[1447955] O[1447956] O[1447957] O[1447958] O[1447959] O[1447960]
 O[1447961] O[1447962] O[1447963] O[1447964] O[1447965] O[1447966]
 O[1447179] O[1447433] O[1447449] O[1447873] O[1447011] O[1447271]
 O[1447451] O[1447555] O[1447581] O[1448006] O[1448007] O[1448069]
 O[1448070] O[1448071] O[1448072] O[1448073] O[1448074] O[1448075]
 O[1448076] O[1448077] O[1448078] O[1448079] O[1448080] O[1448081]
 O[1448082] O[1447924] O[1448083] O[1447968] O[1447969] O[1447970]
 O[1447971] O[1447972] O[1447973] O[1447974] O[1447975] O[1447976]
 O[1447977] O[1447978] O[1447979] O[1447980] O[1447981] O[1447982]
 O[1447983] O[1447984] O[1447985] O[1447986] O[1447987] O[1447988]
 O[1447989] O[1447990] O[1447991] O[1447992] O[1447993] O[1447994]
 O[1447995] O[1447996] O[1447997] O[1447998] O[1447999] O[1448000]
 O[1448001] O[1448002] O[1448003] O[1448004] O[1448005] O[1448038]
 O[1448039] O[1448040] O[1448041] O[1448042] O[1448043] O[1448044]
 O[1448045] O[1448046] O[1448047] O[1448048] O[1448049] O[1448050]
 O[1448051] O[1448052] O[1448053] O[1448054] O[1448055] O[1448056]
 O[1448057] O[1448058] O[1448059] O[1448060] O[1448061] O[1448062]
 O[1448063] O[1448064] O[1448065] O[1448066] O[1448067] O[1448068]
 O[1448230] O[1447900] O[1447412] O[1448231] O[1448232] O[1448233]
 O[1448234]
End
